
set I:= 2	3	4 5 6	7 	8	9	10	11 12 13	14	15 16	17	18	19	20 21 22 
23 24 25 26 27 28 29 30 31 32 33 34 35 36 37 38 39 40 41 42 43 44 45 46 47 48 49 50 51
52 53 54 55 56 57 58 59 60 61 62 63 64 65  ;

set Nodos:= 1 2	3	4 5 6	7 	8	9	10	11 12 13	14	15 16	17	18	19	20 21 22
23 24 25 26 27 28 29 30 31 32 33 34 35 36 37 38 39 40 41 42 43 44 45 46 47 48 49 50 51
52 53 54 55 56 57 58 59 60 61 62 63 64 65 ;

set K:= 1 2 3;
set R:= A B C;
set T:= A B C;


param: xcoord	ycoord :=
1	25	51
2	35	7
3	93	75
4	53	95
5	51	81
6	51	55
7	1	67
8	9	23
9	75	7
10	15	97
11	79	5
12	9	19
13	39	1
14	47	1
15	33	97
16	27	83
17	83	79
18	17	59
19	47	19
20	57	9
21	87	41
22	55	25
23	21	91
24	21	13
25	67	1
26	59	21
27	1	75
28	33	85
29	25	21
30	45	29
31	63	77
32	1	77
33	77	41
34	35	11
35	9	77
36	61	87
37	59	91
38	63	79
39	97	67
40	9	45
41	93	21
42	83	71
43	95	57
44	31	69
45	77	17
46	63	57
47	3	63
48	11	69
49	7	9
50	37	65
51	75	83
52	15	53
53	69	5
54	69	27
55	5	19
56	49	31
57	77	17
58	15	7
59	91	39
60	79	17
61	67	75
62	93	51
63	25	33
64	9	19
65	3	65


;

param Q:=
1   15000
2   15000
3   15000
;

param P:=
A   10000
B   12000
C   14000
;


param alfa:=
A   1
B    .70
C    .30
;

param q:  A   B   C:=
1	0	0	0
2	600	0	0
3	0	1200	0
4	0	0	800
5	350	0	0
6	0	450	0
7	0	0	1000
8	500	0	0
9	0	900	0
10	0	0	1300
11	850	0	0
12	0	100	0
13	0	0	550
14	450	0	0
15	0	600	0
16	0	0	550
17	600	0	0
18	0	1150	0
19	0	0	350
20	50	0	0
21	0	1300	0
22	0	0	500
23	450	0	0
24	0	1100	0
25	0	0	1050
26	850	0	0
27	0	100	0
28	0	0	750
29	800	0	0
30	0	700	0
31	0	0	1150
32	1200	0	0
33	0	100	0
34	0	0	600
35	900	0	0
36	0	250	0
37	0	0	950
38	750	0	0
39	0	400	0
40	0	0	300
41	700	0	0
42	0	650	0
43	0	0	250
44	1200	0	0
45	0	1250	0
46	0	0	100
47	400	0	0
48	0	700	0
49	0	0	100
50	650	0	0
51	0	500	0
52	0	0	300
53	300	0	0
54	0	1200	0
55	0	0	1050
56	1000	0	0
57	0	1200	0
58	0	0	200
59	950	0	0
60	0	700	0
61	0	0	1150
62	100	0	0
63	0	800	0
64	0	0	1150
65	700	0	0



;

param a:  A   B   C:=
1	0	0	0
2	1	0	0
3	0	1	0
4	0	0	1
5	1	0	0
6	0	1	0
7	0	0	1
8	1	0	0
9	0	1	0
10	0	0	1
11	1	0	0
12	0	1	0
13	0	0	1
14	1	0	0
15	0	1	0
16	0	0	1
17	1	0	0
18	0	1	0
19	0	0	1
20	1	0	0
21	0	1	0
22	0	0	1
23	1	0	0
24	0	1	0
25	0	0	1
26	1	0	0
27	0	1	0
28	0	0	1
29	1	0	0
30	0	1	0
31	0	0	1
32	1	0	0
33	0	1	0
34	0	0	1
35	1	0	0
36	0	1	0
37	0	0	1
38	1	0	0
39	0	1	0
40	0	0	1
41	1	0	0
42	0	1	0
43	0	0	1
44	1	0	0
45	0	1	0
46	0	0	1
47	1	0	0
48	0	1	0
49	0	0	1
50	1	0	0
51	0	1	0
52	0	0	1
53	1	0	0
54	0	1	0
55	0	0	1
56	1	0	0
57	0	1	0
58	0	0	1
59	1	0	0
60	0	1	0
61	0	0	1
62	1	0	0
63	0	1	0
64	0	0	1
65	1	0	0

;

param qu :=
1	0
2	600
3	1200
4	800
5	350
6	450
7	1000
8	500
9	900
10	1300
11	850
12	100
13	550
14	450
15	600
16	550
17	600
18	1150
19	350
20	50
21	1300
22	500
23	450
24	1100
25	1050
26	850
27	100
28	750
29	800
30	700
31	1150
32	1200
33	100
34	600
35	900
36	250
37	950
38	750
39	400
40	300
41	700
42	650
43	250
44	1200
45	1250
46	100
47	400
48	700
49	100
50	650
51	500
52	300
53	300
54	1200
55	1050
56	1000
57	1200
58	200
59	950
60	700
61	1150
62	100
63	800
64	1150
65	700


;

set IT:=
(	2	,	A	)
(	3	,	B	)
(	4	,	C	)
(	5	,	A	)
(	6	,	B	)
(	7	,	C	)
(	8	,	A	)
(	9	,	B	)
(	10	,	C	)
(	11	,	A	)
(	12	,	B	)
(	13	,	C	)
(	14	,	A	)
(	15	,	B	)
(	16	,	C	)
(	17	,	A	)
(	18	,	B	)
(	19	,	C	)
(	20	,	A	)
(	21	,	B	)
(	22	,	C	)
(	23	,	A	)
(	24	,	B	)
(	25	,	C	)
(	26	,	A	)
(	27	,	B	)
(	28	,	C	)
(	29	,	A	)
(	30	,	B	)
(	31	,	C	)
(	32	,	A	)
(	33	,	B	)
(	34	,	C	)
(	35	,	A	)
(	36	,	B	)
(	37	,	C	)
(	38	,	A	)
(	39	,	B	)
(	40	,	C	)
(	41	,	A	)
(	42	,	B	)
(	43	,	C	)
(	44	,	A	)
(	45	,	B	)
(	46	,	C	)
(	47	,	A	)
(	48	,	B	)
(	49	,	C	)
(	50	,	A	)
(	51	,	B	)
(	52	,	C	)
(	53	,	A	)
(	54	,	B	)
(	55	,	C	)
(	56	,	A	)
(	57	,	B	)
(	58	,	C	)
(	59	,	A	)
(	60	,	B	)
(	61	,	C	)
(	62	,	A	)
(	63	,	B	)
(	64	,	C	)
(	65	,	A	)

;